Cu  H                                   
   1.00000000000000     
    15.3360000000000003    0.0000000000000000    0.0000000000000000
     0.0000000000000000    5.1120000000000001    0.0000000000000000
     0.0000000000000000    0.0000000000000000   20.5000000000000000
   Cu   H 
    48     4
Selective dynamics
Direct
  0.0833333300000021  0.3086854360093980  0.4540178000000026   F   F   F
  0.2500000000000000  0.3086854360093980  0.4540178000000026   F   F   F
  0.4166666699999979  0.3086854360093980  0.4540178000000026   F   F   F
  0.5833333300000021  0.3086854360093980  0.4540178000000026   F   F   F
  0.7500000000000000  0.3086854360093980  0.4540178000000026   F   F   F
  0.9166666699999979  0.3086854360093980  0.4540178000000026   F   F   F
  0.0833333300000021  0.8086854460093917  0.4540178000000026   F   F   F
  0.2500000000000000  0.8086854460093917  0.4540178000000026   F   F   F
  0.4166666699999979  0.8086854460093917  0.4540178000000026   F   F   F
  0.5833333300000021  0.8086854460093917  0.4540178000000026   F   F   F
  0.7500000000000000  0.8086854460093917  0.4540178000000026   F   F   F
  0.9166666699999979  0.8086854460093917  0.4540178000000026   F   F   F
  0.0000000000000000  0.0586854460093917  0.5421819399999990   F   F   F
  0.1666666699999979  0.0586854460093917  0.5421819399999990   F   F   F
  0.3333333300000021  0.0586854460093917  0.5421819399999990   F   F   F
  0.5000000000000000  0.0586854460093917  0.5421819399999990   F   F   F
  0.6666666699999979  0.0586854460093917  0.5421819399999990   F   F   F
  0.8333333300000021  0.0586854460093917  0.5421819399999990   F   F   F
  0.0000000000000000  0.5586854560093855  0.5421819399999990   F   F   F
  0.1666666699999979  0.5586854560093855  0.5421819399999990   F   F   F
  0.3333333300000021  0.5586854560093855  0.5421819399999990   F   F   F
  0.5000000000000000  0.5586854560093855  0.5421819399999990   F   F   F
  0.6666666699999979  0.5586854560093855  0.5421819399999990   F   F   F
  0.8333333300000021  0.5586854560093855  0.5421819399999990   F   F   F
  0.0845837481945474  0.3091513884800956  0.6344689835627468   T   T   T
  0.2543252538033374  0.3088818026461282  0.6364895270178405   T   T   T
  0.4191279067250346  0.3082897625422061  0.6311752055735332   T   T   T
  0.5813236432773234  0.3087180168998145  0.6316006548487121   T   T   T
  0.7458411806426438  0.3088468517862760  0.6368865551679351   T   T   T
  0.9154591687673518  0.3089759775251370  0.6344044714200474   T   T   T
  0.0845840408827526  0.8091518420282918  0.6344689919654524   T   T   T
  0.2543257602144436  0.8088821945260400  0.6364895540434986   T   T   T
  0.4191287168556103  0.8082896797022471  0.6311752401122702   T   T   T
  0.5813246185638915  0.8087183839160934  0.6316003588045818   T   T   T
  0.7458418236110418  0.8088476428913225  0.6368864618062783   T   T   T
  0.9154594809447865  0.8089765596620289  0.6344044832911304   T   T   T
  0.0007266130679647  0.0587211624544120  0.7225396480078389   T   T   T
  0.1711118209368701  0.0591662881100624  0.7230019487420238   T   T   T
  0.3450805947069187  0.0588732435052989  0.7253671023893838   T   T   T
  0.4977265085228393  0.3102167181293753  0.7469375147994843   T   T   T
  0.6525037094700622  0.0596962548861665  0.7282564169753575   T   T   T
  0.8307626447125590  0.0584730321596701  0.7227996733764653   T   T   T
  0.0007260985980373  0.5587211130648784  0.7225391460762680   T   T   T
  0.1711115422839232  0.5591663944279081  0.7230016332460929   T   T   T
  0.3450799074149728  0.5588733330805679  0.7253670011520172   T   T   T
  0.4977265528773773  0.8102162803973509  0.7469371114229140   T   T   T
  0.6525029756831060  0.5596967019801389  0.7282562095177615   T   T   T
  0.8307617720582575  0.5584728984272646  0.7227991296155293   T   T   T
  0.4351335278215020  0.0603869230464926  0.7785575606966657   T   T   T
  0.4351326959254538  0.5603878876358624  0.7785572874429989   T   T   T
  0.6089617704746146  0.8099718259791778  0.7735501004466570   T   T   T
  0.6089626620524503  0.3099716580390114  0.7735500394047591   T   T   T
 
  0.00000000E+00  0.00000000E+00  0.00000000E+00
  0.00000000E+00  0.00000000E+00  0.00000000E+00
  0.00000000E+00  0.00000000E+00  0.00000000E+00
  0.00000000E+00  0.00000000E+00  0.00000000E+00
  0.00000000E+00  0.00000000E+00  0.00000000E+00
  0.00000000E+00  0.00000000E+00  0.00000000E+00
  0.00000000E+00  0.00000000E+00  0.00000000E+00
  0.00000000E+00  0.00000000E+00  0.00000000E+00
  0.00000000E+00  0.00000000E+00  0.00000000E+00
  0.00000000E+00  0.00000000E+00  0.00000000E+00
  0.00000000E+00  0.00000000E+00  0.00000000E+00
  0.00000000E+00  0.00000000E+00  0.00000000E+00
  0.00000000E+00  0.00000000E+00  0.00000000E+00
  0.00000000E+00  0.00000000E+00  0.00000000E+00
  0.00000000E+00  0.00000000E+00  0.00000000E+00
  0.00000000E+00  0.00000000E+00  0.00000000E+00
  0.00000000E+00  0.00000000E+00  0.00000000E+00
  0.00000000E+00  0.00000000E+00  0.00000000E+00
  0.00000000E+00  0.00000000E+00  0.00000000E+00
  0.00000000E+00  0.00000000E+00  0.00000000E+00
  0.00000000E+00  0.00000000E+00  0.00000000E+00
  0.00000000E+00  0.00000000E+00  0.00000000E+00
  0.00000000E+00  0.00000000E+00  0.00000000E+00
  0.00000000E+00  0.00000000E+00  0.00000000E+00
  0.00000000E+00  0.00000000E+00  0.00000000E+00
  0.00000000E+00  0.00000000E+00  0.00000000E+00
  0.00000000E+00  0.00000000E+00  0.00000000E+00
  0.00000000E+00  0.00000000E+00  0.00000000E+00
  0.00000000E+00  0.00000000E+00  0.00000000E+00
  0.00000000E+00  0.00000000E+00  0.00000000E+00
  0.00000000E+00  0.00000000E+00  0.00000000E+00
  0.00000000E+00  0.00000000E+00  0.00000000E+00
  0.00000000E+00  0.00000000E+00  0.00000000E+00
  0.00000000E+00  0.00000000E+00  0.00000000E+00
  0.00000000E+00  0.00000000E+00  0.00000000E+00
  0.00000000E+00  0.00000000E+00  0.00000000E+00
  0.00000000E+00  0.00000000E+00  0.00000000E+00
  0.00000000E+00  0.00000000E+00  0.00000000E+00
  0.00000000E+00  0.00000000E+00  0.00000000E+00
  0.00000000E+00  0.00000000E+00  0.00000000E+00
  0.00000000E+00  0.00000000E+00  0.00000000E+00
  0.00000000E+00  0.00000000E+00  0.00000000E+00
  0.00000000E+00  0.00000000E+00  0.00000000E+00
  0.00000000E+00  0.00000000E+00  0.00000000E+00
  0.00000000E+00  0.00000000E+00  0.00000000E+00
  0.00000000E+00  0.00000000E+00  0.00000000E+00
  0.00000000E+00  0.00000000E+00  0.00000000E+00
  0.00000000E+00  0.00000000E+00  0.00000000E+00
  0.00000000E+00  0.00000000E+00  0.00000000E+00
  0.00000000E+00  0.00000000E+00  0.00000000E+00
  0.00000000E+00  0.00000000E+00  0.00000000E+00
  0.00000000E+00  0.00000000E+00  0.00000000E+00
