Cu  H                                   
   1.00000000000000     
    15.3360000000000003    0.0000000000000000    0.0000000000000000
     0.0000000000000000    5.1120000000000001    0.0000000000000000
     0.0000000000000000    0.0000000000000000   20.5000000000000000
   Cu   H 
    48     4
Selective dynamics
Direct
  0.0833333300000021  0.3086854360093980  0.4540178000000026   F   F   F
  0.2500000000000000  0.3086854360093980  0.4540178000000026   F   F   F
  0.4166666699999979  0.3086854360093980  0.4540178000000026   F   F   F
  0.5833333300000021  0.3086854360093980  0.4540178000000026   F   F   F
  0.7500000000000000  0.3086854360093980  0.4540178000000026   F   F   F
  0.9166666699999979  0.3086854360093980  0.4540178000000026   F   F   F
  0.0833333300000021  0.8086854460093917  0.4540178000000026   F   F   F
  0.2500000000000000  0.8086854460093917  0.4540178000000026   F   F   F
  0.4166666699999979  0.8086854460093917  0.4540178000000026   F   F   F
  0.5833333300000021  0.8086854460093917  0.4540178000000026   F   F   F
  0.7500000000000000  0.8086854460093917  0.4540178000000026   F   F   F
  0.9166666699999979  0.8086854460093917  0.4540178000000026   F   F   F
  0.0000000000000000  0.0586854460093917  0.5421819399999990   F   F   F
  0.1666666699999979  0.0586854460093917  0.5421819399999990   F   F   F
  0.3333333300000021  0.0586854460093917  0.5421819399999990   F   F   F
  0.5000000000000000  0.0586854460093917  0.5421819399999990   F   F   F
  0.6666666699999979  0.0586854460093917  0.5421819399999990   F   F   F
  0.8333333300000021  0.0586854460093917  0.5421819399999990   F   F   F
  0.0000000000000000  0.5586854560093855  0.5421819399999990   F   F   F
  0.1666666699999979  0.5586854560093855  0.5421819399999990   F   F   F
  0.3333333300000021  0.5586854560093855  0.5421819399999990   F   F   F
  0.5000000000000000  0.5586854560093855  0.5421819399999990   F   F   F
  0.6666666699999979  0.5586854560093855  0.5421819399999990   F   F   F
  0.8333333300000021  0.5586854560093855  0.5421819399999990   F   F   F
  0.0845794734363992  0.3091452246352446  0.6344714426567819   T   T   T
  0.2543214533360398  0.3088908808379642  0.6364907509067805   T   T   T
  0.4191214343246230  0.3083026904698372  0.6311868458442476   T   T   T
  0.5813232697999808  0.3087162779048356  0.6316062962504319   T   T   T
  0.7458435784825213  0.3088429545841649  0.6368918674074564   T   T   T
  0.9154573084158457  0.3089662318095634  0.6344084766880798   T   T   T
  0.0845797661246053  0.8091456781834410  0.6344714510594898   T   T   T
  0.2543219597471449  0.8088912727178794  0.6364907779324369   T   T   T
  0.4191222444551954  0.8083026076298765  0.6311868803829839   T   T   T
  0.5813242450865488  0.8087166449211125  0.6316060002063040   T   T   T
  0.7458442214509233  0.8088437456892095  0.6368917740458002   T   T   T
  0.9154576205932869  0.8089668139464550  0.6344084885591599   T   T   T
  0.0007276004685011  0.0587091222979055  0.7225475596805992   T   T   T
  0.1711131355004056  0.0591619814466213  0.7230038313833091   T   T   T
  0.3450614929357982  0.0588943608940014  0.7253848087797508   T   T   T
  0.4977227380293954  0.3102348964728989  0.7469437328629169   T   T   T
  0.6525154733119862  0.0597051248413649  0.7282672393099929   T   T   T
  0.8307671444245486  0.0584600613419397  0.7228110403276986   T   T   T
  0.0007270859985695  0.5587090729083712  0.7225470577490256   T   T   T
  0.1711128568474578  0.5591620877644630  0.7230035158873775   T   T   T
  0.3450608056438469  0.5588944504692748  0.7253847075423820   T   T   T
  0.4977227823839314  0.8102344587408723  0.7469433294863492   T   T   T
  0.6525147395250315  0.5597055719353321  0.7282670318523969   T   T   T
  0.8307662717702513  0.5584599276095332  0.7228104965667654   T   T   T
  0.4351249420722354  0.0604011912396487  0.7785615906248537   T   T   T
  0.4351241101761900  0.5604021558290171  0.7785613173711852   T   T   T
  0.6089595173478983  0.8099830888939721  0.7735528797318239   T   T   T
  0.6089604089257321  0.3099829209538072  0.7735528186899288   T   T   T
 
             NaN             NaN             NaN
             NaN             NaN             NaN
             NaN             NaN             NaN
             NaN             NaN             NaN
             NaN             NaN             NaN
             NaN             NaN             NaN
             NaN             NaN             NaN
             NaN             NaN             NaN
             NaN             NaN             NaN
             NaN             NaN             NaN
             NaN             NaN             NaN
             NaN             NaN             NaN
             NaN             NaN             NaN
             NaN             NaN             NaN
             NaN             NaN             NaN
             NaN             NaN             NaN
             NaN             NaN             NaN
             NaN             NaN             NaN
             NaN             NaN             NaN
             NaN             NaN             NaN
             NaN             NaN             NaN
             NaN             NaN             NaN
             NaN             NaN             NaN
             NaN             NaN             NaN
             NaN             NaN             NaN
             NaN             NaN             NaN
             NaN             NaN             NaN
             NaN             NaN             NaN
             NaN             NaN             NaN
             NaN             NaN             NaN
             NaN             NaN             NaN
             NaN             NaN             NaN
             NaN             NaN             NaN
             NaN             NaN             NaN
             NaN             NaN             NaN
             NaN             NaN             NaN
             NaN             NaN             NaN
             NaN             NaN             NaN
             NaN             NaN             NaN
             NaN             NaN             NaN
             NaN             NaN             NaN
             NaN             NaN             NaN
             NaN             NaN             NaN
             NaN             NaN             NaN
             NaN             NaN             NaN
             NaN             NaN             NaN
             NaN             NaN             NaN
             NaN             NaN             NaN
             NaN             NaN             NaN
             NaN             NaN             NaN
             NaN             NaN             NaN
             NaN             NaN             NaN
