Cu  H                                   
   1.00000000000000     
    15.3360000000000003    0.0000000000000000    0.0000000000000000
     0.0000000000000000    5.1120000000000001    0.0000000000000000
     0.0000000000000000    0.0000000000000000   20.5000000000000000
   Cu   H 
    48     4
Selective dynamics
Direct
  0.0833333300000021  0.3086854360093980  0.4540178000000026   F   F   F
  0.2500000000000000  0.3086854360093980  0.4540178000000026   F   F   F
  0.4166666699999979  0.3086854360093980  0.4540178000000026   F   F   F
  0.5833333300000021  0.3086854360093980  0.4540178000000026   F   F   F
  0.7500000000000000  0.3086854360093980  0.4540178000000026   F   F   F
  0.9166666699999979  0.3086854360093980  0.4540178000000026   F   F   F
  0.0833333300000021  0.8086854460093917  0.4540178000000026   F   F   F
  0.2500000000000000  0.8086854460093917  0.4540178000000026   F   F   F
  0.4166666699999979  0.8086854460093917  0.4540178000000026   F   F   F
  0.5833333300000021  0.8086854460093917  0.4540178000000026   F   F   F
  0.7500000000000000  0.8086854460093917  0.4540178000000026   F   F   F
  0.9166666699999979  0.8086854460093917  0.4540178000000026   F   F   F
  0.0000000000000000  0.0586854460093917  0.5421819399999990   F   F   F
  0.1666666699999979  0.0586854460093917  0.5421819399999990   F   F   F
  0.3333333300000021  0.0586854460093917  0.5421819399999990   F   F   F
  0.5000000000000000  0.0586854460093917  0.5421819399999990   F   F   F
  0.6666666699999979  0.0586854460093917  0.5421819399999990   F   F   F
  0.8333333300000021  0.0586854460093917  0.5421819399999990   F   F   F
  0.0000000000000000  0.5586854560093855  0.5421819399999990   F   F   F
  0.1666666699999979  0.5586854560093855  0.5421819399999990   F   F   F
  0.3333333300000021  0.5586854560093855  0.5421819399999990   F   F   F
  0.5000000000000000  0.5586854560093855  0.5421819399999990   F   F   F
  0.6666666699999979  0.5586854560093855  0.5421819399999990   F   F   F
  0.8333333300000021  0.5586854560093855  0.5421819399999990   F   F   F
  0.0845794734364010  0.3091452246352481  0.6344714426567798   T   T   T
  0.2543214533360420  0.3088908808379665  0.6364907509067805   T   T   T
  0.4191214343246226  0.3083026904698398  0.6311868458442504   T   T   T
  0.5813232697999831  0.3087162779048380  0.6316062962504342   T   T   T
  0.7458435784825190  0.3088429545841652  0.6368918674074575   T   T   T
  0.9154573084158492  0.3089662318095663  0.6344084766880822   T   T   T
  0.0845797661246071  0.8091456781834444  0.6344714510594877   T   T   T
  0.2543219597471471  0.8088912727178817  0.6364907779324369   T   T   T
  0.4191222444551950  0.8083026076298792  0.6311868803829868   T   T   T
  0.5813242450865510  0.8087166449211148  0.6316060002063063   T   T   T
  0.7458442214509211  0.8088437456892097  0.6368917740458013   T   T   T
  0.9154576205932904  0.8089668139464579  0.6344084885591623   T   T   T
  0.0007276004684987  0.0587091222979064  0.7225475596805999   T   T   T
  0.1711131355004040  0.0591619814466215  0.7230038313833119   T   T   T
  0.3450614929357981  0.0588943608939989  0.7253848087797518   T   T   T
  0.4977227380293950  0.3102348964728971  0.7469437328629182   T   T   T
  0.6525154733119858  0.0597051248413624  0.7282672393099925   T   T   T
  0.8307671444245481  0.0584600613419396  0.7228110403277015   T   T   T
  0.0007270859985672  0.5587090729083721  0.7225470577490263   T   T   T
  0.1711128568474561  0.5591620877644632  0.7230035158873803   T   T   T
  0.3450608056438468  0.5588944504692723  0.7253847075423830   T   T   T
  0.4977227823839310  0.8102344587408705  0.7469433294863504   T   T   T
  0.6525147395250310  0.5597055719353297  0.7282670318523965   T   T   T
  0.8307662717702509  0.5584599276095331  0.7228104965667683   T   T   T
  0.4351249420722325  0.0604011912396508  0.7785615906248518   T   T   T
  0.4351241101761871  0.5604021558290192  0.7785613173711832   T   T   T
  0.6089595173478950  0.8099830888939745  0.7735528797318254   T   T   T
  0.6089604089257288  0.3099829209538096  0.7735528186899303   T   T   T
 
  0.00000000E+00  0.00000000E+00  0.00000000E+00
  0.00000000E+00  0.00000000E+00  0.00000000E+00
  0.00000000E+00  0.00000000E+00  0.00000000E+00
  0.00000000E+00  0.00000000E+00  0.00000000E+00
  0.00000000E+00  0.00000000E+00  0.00000000E+00
  0.00000000E+00  0.00000000E+00  0.00000000E+00
  0.00000000E+00  0.00000000E+00  0.00000000E+00
  0.00000000E+00  0.00000000E+00  0.00000000E+00
  0.00000000E+00  0.00000000E+00  0.00000000E+00
  0.00000000E+00  0.00000000E+00  0.00000000E+00
  0.00000000E+00  0.00000000E+00  0.00000000E+00
  0.00000000E+00  0.00000000E+00  0.00000000E+00
  0.00000000E+00  0.00000000E+00  0.00000000E+00
  0.00000000E+00  0.00000000E+00  0.00000000E+00
  0.00000000E+00  0.00000000E+00  0.00000000E+00
  0.00000000E+00  0.00000000E+00  0.00000000E+00
  0.00000000E+00  0.00000000E+00  0.00000000E+00
  0.00000000E+00  0.00000000E+00  0.00000000E+00
  0.00000000E+00  0.00000000E+00  0.00000000E+00
  0.00000000E+00  0.00000000E+00  0.00000000E+00
  0.00000000E+00  0.00000000E+00  0.00000000E+00
  0.00000000E+00  0.00000000E+00  0.00000000E+00
  0.00000000E+00  0.00000000E+00  0.00000000E+00
  0.00000000E+00  0.00000000E+00  0.00000000E+00
  0.00000000E+00  0.00000000E+00  0.00000000E+00
  0.00000000E+00  0.00000000E+00  0.00000000E+00
  0.00000000E+00  0.00000000E+00  0.00000000E+00
  0.00000000E+00  0.00000000E+00  0.00000000E+00
  0.00000000E+00  0.00000000E+00  0.00000000E+00
  0.00000000E+00  0.00000000E+00  0.00000000E+00
  0.00000000E+00  0.00000000E+00  0.00000000E+00
  0.00000000E+00  0.00000000E+00  0.00000000E+00
  0.00000000E+00  0.00000000E+00  0.00000000E+00
  0.00000000E+00  0.00000000E+00  0.00000000E+00
  0.00000000E+00  0.00000000E+00  0.00000000E+00
  0.00000000E+00  0.00000000E+00  0.00000000E+00
  0.00000000E+00  0.00000000E+00  0.00000000E+00
  0.00000000E+00  0.00000000E+00  0.00000000E+00
  0.00000000E+00  0.00000000E+00  0.00000000E+00
  0.00000000E+00  0.00000000E+00  0.00000000E+00
  0.00000000E+00  0.00000000E+00  0.00000000E+00
  0.00000000E+00  0.00000000E+00  0.00000000E+00
  0.00000000E+00  0.00000000E+00  0.00000000E+00
  0.00000000E+00  0.00000000E+00  0.00000000E+00
  0.00000000E+00  0.00000000E+00  0.00000000E+00
  0.00000000E+00  0.00000000E+00  0.00000000E+00
  0.00000000E+00  0.00000000E+00  0.00000000E+00
  0.00000000E+00  0.00000000E+00  0.00000000E+00
  0.00000000E+00  0.00000000E+00  0.00000000E+00
  0.00000000E+00  0.00000000E+00  0.00000000E+00
  0.00000000E+00  0.00000000E+00  0.00000000E+00
  0.00000000E+00  0.00000000E+00  0.00000000E+00
