KPT-Resolved Value to Generate K-Mesh: 0.040
0
Gamma
2   6   1
0.0  0.0  0.0
